SAT
-12 103 131 83 137 -127 -10 64 -48 102 16 -32 -91 -26 -99 -145 -84 -67 -117 36 -77 142 61 73 -89 -97 101 40 -150 90 -55 7 6 -52 93 107 -2 105 -75 -98 20 94 120 -37 66 -38 -5 -56 110 -34 -146 46 -25 140 79 65 -31 -51 111 -96 -15 57 141 -62 -92 -132 115 81 41 144 -80 -60 125 78 85 -106 -128 70 -100 -35 -33 -43 -129 109 135 -19 -50 -124 108 59 -126 -1 104 -9 -72 -27 29 -95 -17 54 -23 -82 -53 68 139 -88 -11 133 -44 113 -18 122 -136 118 -138 42 147 -21 22 148 -149 116 -134 -87 -47 76 -45 -28 -24 58 -71 -8 -3 39 114 123 69 63 -14 112 -119 -4 -49 143 -74 -130 -121 -86 -30 13 0
